(set-logic QF_NRA)
(set-info :source |
SMT script generated by Ultimate Automizer [1,2].
Ultimate Automizer is a software verifier for C programs that implements an
automata-based approach [3].
The commands in this SMT scripts are used for a constraint-based synthesis
of invariants [4].

2016-04-30, Matthias Heizmann (heizmann@informatik.uni-freiburg.de)


[1] http://http://ultimate.informatik.uni-freiburg.de/automizer/
[2] Matthias Heizmann, Daniel Dietsch, Marius Greitschus, Jan Leike,
Betim Musa, Claus Schätzle, Andreas Podelski: Ultimate Automizer with
Two-track Proofs - (Competition Contribution). TACAS 2016: 950-953
[3] Matthias Heizmann, Jochen Hoenicke, Andreas Podelski: Software Model
Checking for People Who Love Automata. CAV 2013:36-52
[4] Michael Colon, Sriram Sankaranarayanan, Henny Sipma: Linear Invariant
Generation Using Non-linear Constraint Solving. CAV 2003: 420-432

|)
(set-info :smt-lib-version 2.5)
(set-info :category "industrial")
(set-info :status sat)
(declare-fun liipp_0_c () Real)
(declare-fun |liipp_0__ULTIMATE.start_main_#res| () Real)
(declare-fun liipp_0__ULTIMATE.start_main_~y~1 () Real)
(declare-fun |liipp_0__ULTIMATE.start_main_#t~pre1| () Real)
(declare-fun liipp_0__ULTIMATE.start_main_~z~1 () Real)
(declare-fun |liipp_0__ULTIMATE.start_main_#t~pre0| () Real)
(declare-fun liipp_0__ULTIMATE.start_main_~x~1 () Real)
(declare-fun liipp_1_c () Real)
(declare-fun |liipp_1__ULTIMATE.start_main_#res| () Real)
(declare-fun liipp_1__ULTIMATE.start_main_~y~1 () Real)
(declare-fun |liipp_1__ULTIMATE.start_main_#t~pre1| () Real)
(declare-fun liipp_1__ULTIMATE.start_main_~z~1 () Real)
(declare-fun |liipp_1__ULTIMATE.start_main_#t~pre0| () Real)
(declare-fun liipp_1__ULTIMATE.start_main_~x~1 () Real)
(declare-fun liipp_2_c () Real)
(declare-fun |liipp_2__ULTIMATE.start_main_#res| () Real)
(declare-fun liipp_2__ULTIMATE.start_main_~y~1 () Real)
(declare-fun |liipp_2__ULTIMATE.start_main_#t~pre1| () Real)
(declare-fun liipp_2__ULTIMATE.start_main_~z~1 () Real)
(declare-fun |liipp_2__ULTIMATE.start_main_#t~pre0| () Real)
(declare-fun liipp_2__ULTIMATE.start_main_~x~1 () Real)
(declare-fun liipp_3_c () Real)
(declare-fun |liipp_3__ULTIMATE.start_main_#res| () Real)
(declare-fun liipp_3__ULTIMATE.start_main_~y~1 () Real)
(declare-fun |liipp_3__ULTIMATE.start_main_#t~pre1| () Real)
(declare-fun liipp_3__ULTIMATE.start_main_~z~1 () Real)
(declare-fun |liipp_3__ULTIMATE.start_main_#t~pre0| () Real)
(declare-fun liipp_3__ULTIMATE.start_main_~x~1 () Real)
(declare-fun liipp_4_c () Real)
(declare-fun |liipp_4__ULTIMATE.start_main_#res| () Real)
(declare-fun liipp_4__ULTIMATE.start_main_~y~1 () Real)
(declare-fun |liipp_4__ULTIMATE.start_main_#t~pre1| () Real)
(declare-fun liipp_4__ULTIMATE.start_main_~z~1 () Real)
(declare-fun |liipp_4__ULTIMATE.start_main_#t~pre0| () Real)
(declare-fun liipp_4__ULTIMATE.start_main_~x~1 () Real)
(declare-fun liipp_5_c () Real)
(declare-fun |liipp_5__ULTIMATE.start_main_#res| () Real)
(declare-fun liipp_5__ULTIMATE.start_main_~y~1 () Real)
(declare-fun |liipp_5__ULTIMATE.start_main_#t~pre1| () Real)
(declare-fun liipp_5__ULTIMATE.start_main_~z~1 () Real)
(declare-fun |liipp_5__ULTIMATE.start_main_#t~pre0| () Real)
(declare-fun liipp_5__ULTIMATE.start_main_~x~1 () Real)
(declare-fun liipp_6_replace_0 () Real)
(declare-fun liipp_6_replace_1 () Real)
(declare-fun liipp_6_replace_2 () Real)
(declare-fun liipp_6_replace_3 () Real)
(declare-fun liipp_6_replace_4 () Real)
(declare-fun liipp_6_replace_5 () Real)
(declare-fun liipp_7_replace_0 () Real)
(declare-fun liipp_7_replace_1 () Real)
(declare-fun liipp_7_replace_2 () Real)
(declare-fun liipp_7_replace_3 () Real)
(declare-fun liipp_7_replace_4 () Real)
(declare-fun liipp_7_replace_5 () Real)
(declare-fun motzkin_2300_0 () Real)
(declare-fun motzkin_2300_1 () Real)
(declare-fun motzkin_2300_2 () Real)
(declare-fun motzkin_2300_3 () Real)
(declare-fun motzkin_2300_4 () Real)
(declare-fun motzkin_2301_0 () Real)
(declare-fun motzkin_2301_1 () Real)
(declare-fun motzkin_2301_2 () Real)
(declare-fun motzkin_2301_3 () Real)
(declare-fun motzkin_2301_4 () Real)
(assert (and (>= motzkin_2300_0 0.0) (>= motzkin_2300_1 0.0) (>= motzkin_2300_2 0.0) (>= motzkin_2300_3 0.0) (>= motzkin_2300_4 0.0) (= (+ (* motzkin_2300_0 (- 1.0)) motzkin_2300_1 (* motzkin_2300_4 (+ (* (- 1.0) liipp_0__ULTIMATE.start_main_~y~1) 0.0))) 0.0) (= (+ motzkin_2300_2 (* motzkin_2300_3 (- 1.0)) (* motzkin_2300_4 (+ (* (- 1.0) liipp_0__ULTIMATE.start_main_~x~1) 0.0))) 0.0) (= (* motzkin_2300_4 (+ (* (- 1.0) |liipp_0__ULTIMATE.start_main_#res|) 0.0)) 0.0) (= (* motzkin_2300_4 (+ (* (- 1.0) |liipp_0__ULTIMATE.start_main_#t~pre1|) 0.0)) 0.0) (= (* motzkin_2300_4 (+ (* (- 1.0) liipp_0__ULTIMATE.start_main_~z~1) 0.0)) 0.0) (= (* motzkin_2300_4 (+ (* (- 1.0) |liipp_0__ULTIMATE.start_main_#t~pre0|) 0.0)) 0.0) (<= (+ (* motzkin_2300_0 13.0) (* motzkin_2300_1 (- 13.0)) (* motzkin_2300_2 (- 8.0)) (* motzkin_2300_3 8.0) (* motzkin_2300_4 (+ (* (- 1.0) liipp_0_c) 0.0))) 0.0) (or (< (+ (* motzkin_2300_0 13.0) (* motzkin_2300_1 (- 13.0)) (* motzkin_2300_2 (- 8.0)) (* motzkin_2300_3 8.0) (* motzkin_2300_4 (+ (* (- 1.0) liipp_0_c) 0.0))) 0.0) (> 0.0 0.0)) (>= motzkin_2301_0 0.0) (>= motzkin_2301_1 0.0) (>= motzkin_2301_2 0.0) (>= motzkin_2301_3 0.0) (>= motzkin_2301_4 0.0) (= (+ (* motzkin_2301_0 (- 1.0)) motzkin_2301_1 (* motzkin_2301_4 (+ (* (- 1.0) liipp_1__ULTIMATE.start_main_~y~1) 0.0))) 0.0) (= (+ motzkin_2301_2 (* motzkin_2301_3 (- 1.0)) (* motzkin_2301_4 (+ (* (- 1.0) liipp_1__ULTIMATE.start_main_~x~1) 0.0))) 0.0) (= (* motzkin_2301_4 (+ (* (- 1.0) |liipp_1__ULTIMATE.start_main_#res|) 0.0)) 0.0) (= (* motzkin_2301_4 (+ (* (- 1.0) |liipp_1__ULTIMATE.start_main_#t~pre1|) 0.0)) 0.0) (= (* motzkin_2301_4 (+ (* (- 1.0) liipp_1__ULTIMATE.start_main_~z~1) 0.0)) 0.0) (= (* motzkin_2301_4 (+ (* (- 1.0) |liipp_1__ULTIMATE.start_main_#t~pre0|) 0.0)) 0.0) (<= (+ (* motzkin_2301_0 13.0) (* motzkin_2301_1 (- 13.0)) (* motzkin_2301_2 (- 8.0)) (* motzkin_2301_3 8.0) (* motzkin_2301_4 (+ (* (- 1.0) liipp_1_c) 0.0))) 0.0) (or (< (+ (* motzkin_2301_0 13.0) (* motzkin_2301_1 (- 13.0)) (* motzkin_2301_2 (- 8.0)) (* motzkin_2301_3 8.0)) 0.0) (> motzkin_2301_4 0.0))))
(declare-fun liipp_9_replace_0 () Real)
(declare-fun liipp_9_replace_1 () Real)
(declare-fun liipp_9_replace_2 () Real)
(declare-fun liipp_9_replace_3 () Real)
(declare-fun liipp_9_replace_4 () Real)
(declare-fun motzkin_2302_0 () Real)
(declare-fun motzkin_2302_1 () Real)
(declare-fun motzkin_2302_2 () Real)
(declare-fun motzkin_2302_3 () Real)
(declare-fun motzkin_2302_4 () Real)
(declare-fun motzkin_2303_0 () Real)
(declare-fun motzkin_2303_1 () Real)
(declare-fun motzkin_2303_2 () Real)
(declare-fun motzkin_2303_3 () Real)
(declare-fun motzkin_2303_4 () Real)
(assert (and (>= motzkin_2302_0 0.0) (>= motzkin_2302_1 0.0) (>= motzkin_2302_2 0.0) (>= motzkin_2302_3 0.0) (>= motzkin_2302_4 0.0) (= (+ (* motzkin_2302_0 (- 1.0)) motzkin_2302_1 (* motzkin_2302_2 (+ (* (- 1.0) liipp_4__ULTIMATE.start_main_~y~1) 0.0)) (* motzkin_2302_3 (+ (* 1.0 liipp_0__ULTIMATE.start_main_~y~1) 0.0)) (* motzkin_2302_4 (+ (* 1.0 liipp_1__ULTIMATE.start_main_~y~1) 0.0))) 0.0) (= (+ (* motzkin_2302_2 (+ (* (- 1.0) |liipp_4__ULTIMATE.start_main_#t~pre1|) 0.0)) (* motzkin_2302_3 (+ (* 1.0 |liipp_0__ULTIMATE.start_main_#t~pre1|) 0.0)) (* motzkin_2302_4 (+ (* 1.0 |liipp_1__ULTIMATE.start_main_#t~pre1|) 0.0))) 0.0) (= (+ (* motzkin_2302_2 (+ (* (- 1.0) liipp_4__ULTIMATE.start_main_~z~1) 0.0)) (* motzkin_2302_3 (+ (* 1.0 liipp_0__ULTIMATE.start_main_~z~1) 0.0)) (* motzkin_2302_4 (+ (* 1.0 liipp_1__ULTIMATE.start_main_~z~1) 0.0))) 0.0) (= (+ (* motzkin_2302_2 (+ (* (- 1.0) |liipp_4__ULTIMATE.start_main_#res|) 0.0)) (* motzkin_2302_3 (+ (* 1.0 |liipp_0__ULTIMATE.start_main_#res|) 0.0)) (* motzkin_2302_4 (+ (* 1.0 |liipp_1__ULTIMATE.start_main_#res|) 0.0))) 0.0) (= (+ (* motzkin_2302_2 (+ (* (- 1.0) |liipp_4__ULTIMATE.start_main_#t~pre0|) 0.0)) (* motzkin_2302_3 (+ (* 1.0 |liipp_0__ULTIMATE.start_main_#t~pre0|) 0.0)) (* motzkin_2302_4 (+ (* 1.0 |liipp_1__ULTIMATE.start_main_#t~pre0|) 0.0))) 0.0) (= (+ (* motzkin_2302_2 (+ (* (- 1.0) liipp_4__ULTIMATE.start_main_~x~1) 0.0)) (* motzkin_2302_3 (+ (* 1.0 liipp_0__ULTIMATE.start_main_~x~1) 0.0)) (* motzkin_2302_4 (+ (* 1.0 liipp_1__ULTIMATE.start_main_~x~1) 0.0))) 0.0) (<= (+ (* motzkin_2302_0 13.0) (* motzkin_2302_1 (- 13.0)) (* motzkin_2302_2 (+ (* (- 1.0) liipp_4_c) 0.0)) (* motzkin_2302_3 (+ (* 1.0 liipp_0_c) 0.0)) (* motzkin_2302_4 (+ (* 1.0 liipp_1_c) 0.0))) 0.0) (or (< (+ (* motzkin_2302_0 13.0) (* motzkin_2302_1 (- 13.0)) (* motzkin_2302_2 (+ (* (- 1.0) liipp_4_c) 0.0)) (* motzkin_2302_4 (+ (* 1.0 liipp_1_c) 0.0))) 0.0) (> motzkin_2302_3 0.0)) (>= motzkin_2303_0 0.0) (>= motzkin_2303_1 0.0) (>= motzkin_2303_2 0.0) (>= motzkin_2303_3 0.0) (>= motzkin_2303_4 0.0) (= (+ (* motzkin_2303_0 (- 1.0)) motzkin_2303_1 (* motzkin_2303_2 (+ (* (- 1.0) liipp_5__ULTIMATE.start_main_~y~1) 0.0)) (* motzkin_2303_3 (+ (* 1.0 liipp_0__ULTIMATE.start_main_~y~1) 0.0)) (* motzkin_2303_4 (+ (* 1.0 liipp_1__ULTIMATE.start_main_~y~1) 0.0))) 0.0) (= (+ (* motzkin_2303_2 (+ (* (- 1.0) |liipp_5__ULTIMATE.start_main_#t~pre1|) 0.0)) (* motzkin_2303_3 (+ (* 1.0 |liipp_0__ULTIMATE.start_main_#t~pre1|) 0.0)) (* motzkin_2303_4 (+ (* 1.0 |liipp_1__ULTIMATE.start_main_#t~pre1|) 0.0))) 0.0) (= (+ (* motzkin_2303_2 (+ (* (- 1.0) liipp_5__ULTIMATE.start_main_~z~1) 0.0)) (* motzkin_2303_3 (+ (* 1.0 liipp_0__ULTIMATE.start_main_~z~1) 0.0)) (* motzkin_2303_4 (+ (* 1.0 liipp_1__ULTIMATE.start_main_~z~1) 0.0))) 0.0) (= (+ (* motzkin_2303_2 (+ (* (- 1.0) |liipp_5__ULTIMATE.start_main_#res|) 0.0)) (* motzkin_2303_3 (+ (* 1.0 |liipp_0__ULTIMATE.start_main_#res|) 0.0)) (* motzkin_2303_4 (+ (* 1.0 |liipp_1__ULTIMATE.start_main_#res|) 0.0))) 0.0) (= (+ (* motzkin_2303_2 (+ (* (- 1.0) |liipp_5__ULTIMATE.start_main_#t~pre0|) 0.0)) (* motzkin_2303_3 (+ (* 1.0 |liipp_0__ULTIMATE.start_main_#t~pre0|) 0.0)) (* motzkin_2303_4 (+ (* 1.0 |liipp_1__ULTIMATE.start_main_#t~pre0|) 0.0))) 0.0) (= (+ (* motzkin_2303_2 (+ (* (- 1.0) liipp_5__ULTIMATE.start_main_~x~1) 0.0)) (* motzkin_2303_3 (+ (* 1.0 liipp_0__ULTIMATE.start_main_~x~1) 0.0)) (* motzkin_2303_4 (+ (* 1.0 liipp_1__ULTIMATE.start_main_~x~1) 0.0))) 0.0) (<= (+ (* motzkin_2303_0 13.0) (* motzkin_2303_1 (- 13.0)) (* motzkin_2303_2 (+ (* (- 1.0) liipp_5_c) 0.0)) (* motzkin_2303_3 (+ (* 1.0 liipp_0_c) 0.0)) (* motzkin_2303_4 (+ (* 1.0 liipp_1_c) 0.0))) 0.0) (or (< (+ (* motzkin_2303_0 13.0) (* motzkin_2303_1 (- 13.0)) (* motzkin_2303_4 (+ (* 1.0 liipp_1_c) 0.0))) 0.0) (> (+ motzkin_2303_2 motzkin_2303_3) 0.0))))
(declare-fun liipp_10_replace_0 () Real)
(declare-fun liipp_10_replace_1 () Real)
(declare-fun liipp_10_replace_2 () Real)
(declare-fun motzkin_2304_0 () Real)
(declare-fun motzkin_2304_1 () Real)
(declare-fun motzkin_2304_2 () Real)
(declare-fun motzkin_2304_3 () Real)
(declare-fun motzkin_2304_4 () Real)
(declare-fun motzkin_2304_5 () Real)
(declare-fun motzkin_2304_6 () Real)
(declare-fun motzkin_2304_7 () Real)
(declare-fun motzkin_2304_8 () Real)
(declare-fun motzkin_2305_0 () Real)
(declare-fun motzkin_2305_1 () Real)
(declare-fun motzkin_2305_2 () Real)
(declare-fun motzkin_2305_3 () Real)
(declare-fun motzkin_2305_4 () Real)
(declare-fun motzkin_2305_5 () Real)
(declare-fun motzkin_2305_6 () Real)
(declare-fun motzkin_2305_7 () Real)
(declare-fun motzkin_2305_8 () Real)
(assert (and (>= motzkin_2304_0 0.0) (>= motzkin_2304_1 0.0) (>= motzkin_2304_2 0.0) (>= motzkin_2304_3 0.0) (>= motzkin_2304_4 0.0) (>= motzkin_2304_5 0.0) (>= motzkin_2304_6 0.0) (>= motzkin_2304_7 0.0) (>= motzkin_2304_8 0.0) (= (+ motzkin_2304_0 (* motzkin_2304_1 (- 1.0)) (* motzkin_2304_2 (- 1.0)) motzkin_2304_3 (* motzkin_2304_4 (- 1.0)) motzkin_2304_5 (* motzkin_2304_7 (+ (* 1.0 liipp_4__ULTIMATE.start_main_~x~1) 0.0)) (* motzkin_2304_8 (+ (* 1.0 liipp_5__ULTIMATE.start_main_~x~1) 0.0))) 0.0) (= (+ motzkin_2304_2 (* motzkin_2304_3 (- 1.0)) (* motzkin_2304_6 (+ (* (- 1.0) liipp_2__ULTIMATE.start_main_~z~1) 0.0))) 0.0) (= (+ motzkin_2304_4 (* motzkin_2304_5 (- 1.0)) (* motzkin_2304_6 (+ (* (- 1.0) liipp_2__ULTIMATE.start_main_~x~1) 0.0))) 0.0) (= (* motzkin_2304_6 (+ (* (- 1.0) |liipp_2__ULTIMATE.start_main_#t~pre1|) 0.0)) 0.0) (= (+ (* motzkin_2304_6 (+ (* (- 1.0) liipp_2__ULTIMATE.start_main_~y~1) 0.0)) (* motzkin_2304_7 (+ (* 1.0 liipp_4__ULTIMATE.start_main_~y~1) 0.0)) (* motzkin_2304_8 (+ (* 1.0 liipp_5__ULTIMATE.start_main_~y~1) 0.0))) 0.0) (= (+ (* motzkin_2304_6 (+ (* (- 1.0) |liipp_2__ULTIMATE.start_main_#res|) 0.0)) (* motzkin_2304_7 (+ (* 1.0 |liipp_4__ULTIMATE.start_main_#res|) 0.0)) (* motzkin_2304_8 (+ (* 1.0 |liipp_5__ULTIMATE.start_main_#res|) 0.0))) 0.0) (= (+ (* motzkin_2304_6 (+ (* (- 1.0) |liipp_2__ULTIMATE.start_main_#t~pre0|) 0.0)) (* motzkin_2304_7 (+ (* 1.0 |liipp_4__ULTIMATE.start_main_#t~pre0|) 0.0)) (* motzkin_2304_8 (+ (* 1.0 |liipp_5__ULTIMATE.start_main_#t~pre0|) 0.0))) 0.0) (= (+ (* motzkin_2304_7 (+ (* 1.0 |liipp_4__ULTIMATE.start_main_#t~pre1|) 0.0)) (* motzkin_2304_8 (+ (* 1.0 |liipp_5__ULTIMATE.start_main_#t~pre1|) 0.0))) 0.0) (= (+ (* motzkin_2304_7 (+ (* 1.0 liipp_4__ULTIMATE.start_main_~z~1) 0.0)) (* motzkin_2304_8 (+ (* 1.0 liipp_5__ULTIMATE.start_main_~z~1) 0.0))) 0.0) (<= (+ (* motzkin_2304_0 (- 8.0)) (* motzkin_2304_1 8.0) (* motzkin_2304_2 (- 10.0)) (* motzkin_2304_3 10.0) motzkin_2304_4 (* motzkin_2304_5 (- 1.0)) (* motzkin_2304_6 (+ (* (- 1.0) liipp_2_c) 0.0)) (* motzkin_2304_7 (+ (* 1.0 liipp_4_c) 0.0)) (* motzkin_2304_8 (+ (* 1.0 liipp_5_c) 0.0))) 0.0) (or (< (+ (* motzkin_2304_0 (- 8.0)) (* motzkin_2304_1 8.0) (* motzkin_2304_2 (- 10.0)) (* motzkin_2304_3 10.0) motzkin_2304_4 (* motzkin_2304_5 (- 1.0)) (* motzkin_2304_6 (+ (* (- 1.0) liipp_2_c) 0.0)) (* motzkin_2304_8 (+ (* 1.0 liipp_5_c) 0.0))) 0.0) (> motzkin_2304_7 0.0)) (>= motzkin_2305_0 0.0) (>= motzkin_2305_1 0.0) (>= motzkin_2305_2 0.0) (>= motzkin_2305_3 0.0) (>= motzkin_2305_4 0.0) (>= motzkin_2305_5 0.0) (>= motzkin_2305_6 0.0) (>= motzkin_2305_7 0.0) (>= motzkin_2305_8 0.0) (= (+ motzkin_2305_0 (* motzkin_2305_1 (- 1.0)) (* motzkin_2305_2 (- 1.0)) motzkin_2305_3 (* motzkin_2305_4 (- 1.0)) motzkin_2305_5 (* motzkin_2305_7 (+ (* 1.0 liipp_4__ULTIMATE.start_main_~x~1) 0.0)) (* motzkin_2305_8 (+ (* 1.0 liipp_5__ULTIMATE.start_main_~x~1) 0.0))) 0.0) (= (+ motzkin_2305_2 (* motzkin_2305_3 (- 1.0)) (* motzkin_2305_6 (+ (* (- 1.0) liipp_3__ULTIMATE.start_main_~z~1) 0.0))) 0.0) (= (+ motzkin_2305_4 (* motzkin_2305_5 (- 1.0)) (* motzkin_2305_6 (+ (* (- 1.0) liipp_3__ULTIMATE.start_main_~x~1) 0.0))) 0.0) (= (* motzkin_2305_6 (+ (* (- 1.0) |liipp_3__ULTIMATE.start_main_#t~pre1|) 0.0)) 0.0) (= (+ (* motzkin_2305_6 (+ (* (- 1.0) liipp_3__ULTIMATE.start_main_~y~1) 0.0)) (* motzkin_2305_7 (+ (* 1.0 liipp_4__ULTIMATE.start_main_~y~1) 0.0)) (* motzkin_2305_8 (+ (* 1.0 liipp_5__ULTIMATE.start_main_~y~1) 0.0))) 0.0) (= (+ (* motzkin_2305_6 (+ (* (- 1.0) |liipp_3__ULTIMATE.start_main_#res|) 0.0)) (* motzkin_2305_7 (+ (* 1.0 |liipp_4__ULTIMATE.start_main_#res|) 0.0)) (* motzkin_2305_8 (+ (* 1.0 |liipp_5__ULTIMATE.start_main_#res|) 0.0))) 0.0) (= (+ (* motzkin_2305_6 (+ (* (- 1.0) |liipp_3__ULTIMATE.start_main_#t~pre0|) 0.0)) (* motzkin_2305_7 (+ (* 1.0 |liipp_4__ULTIMATE.start_main_#t~pre0|) 0.0)) (* motzkin_2305_8 (+ (* 1.0 |liipp_5__ULTIMATE.start_main_#t~pre0|) 0.0))) 0.0) (= (+ (* motzkin_2305_7 (+ (* 1.0 |liipp_4__ULTIMATE.start_main_#t~pre1|) 0.0)) (* motzkin_2305_8 (+ (* 1.0 |liipp_5__ULTIMATE.start_main_#t~pre1|) 0.0))) 0.0) (= (+ (* motzkin_2305_7 (+ (* 1.0 liipp_4__ULTIMATE.start_main_~z~1) 0.0)) (* motzkin_2305_8 (+ (* 1.0 liipp_5__ULTIMATE.start_main_~z~1) 0.0))) 0.0) (<= (+ (* motzkin_2305_0 (- 8.0)) (* motzkin_2305_1 8.0) (* motzkin_2305_2 (- 10.0)) (* motzkin_2305_3 10.0) motzkin_2305_4 (* motzkin_2305_5 (- 1.0)) (* motzkin_2305_6 (+ (* (- 1.0) liipp_3_c) 0.0)) (* motzkin_2305_7 (+ (* 1.0 liipp_4_c) 0.0)) (* motzkin_2305_8 (+ (* 1.0 liipp_5_c) 0.0))) 0.0) (or (< (+ (* motzkin_2305_0 (- 8.0)) (* motzkin_2305_1 8.0) (* motzkin_2305_2 (- 10.0)) (* motzkin_2305_3 10.0) motzkin_2305_4 (* motzkin_2305_5 (- 1.0)) (* motzkin_2305_8 (+ (* 1.0 liipp_5_c) 0.0))) 0.0) (> (+ motzkin_2305_6 motzkin_2305_7) 0.0))))
(declare-fun liipp_11_replace_0 () Real)
(declare-fun liipp_11_replace_1 () Real)
(declare-fun liipp_11_replace_2 () Real)
(declare-fun liipp_11_replace_3 () Real)
(declare-fun liipp_11_replace_4 () Real)
(declare-fun motzkin_2306_0 () Real)
(declare-fun motzkin_2306_1 () Real)
(declare-fun motzkin_2306_2 () Real)
(declare-fun motzkin_2307_0 () Real)
(declare-fun motzkin_2307_1 () Real)
(declare-fun motzkin_2307_2 () Real)
(assert (and (>= motzkin_2306_0 0.0) (>= motzkin_2306_1 0.0) (>= motzkin_2306_2 0.0) (= (+ motzkin_2306_0 (* motzkin_2306_1 (+ (* 1.0 liipp_2__ULTIMATE.start_main_~z~1) 0.0)) (* motzkin_2306_2 (+ (* 1.0 liipp_3__ULTIMATE.start_main_~z~1) 0.0))) 0.0) (= (+ (* motzkin_2306_1 (+ (* 1.0 liipp_2__ULTIMATE.start_main_~y~1) 0.0)) (* motzkin_2306_2 (+ (* 1.0 liipp_3__ULTIMATE.start_main_~y~1) 0.0))) 0.0) (= (+ (* motzkin_2306_1 (+ (* 1.0 |liipp_2__ULTIMATE.start_main_#t~pre1|) 0.0)) (* motzkin_2306_2 (+ (* 1.0 |liipp_3__ULTIMATE.start_main_#t~pre1|) 0.0))) 0.0) (= (+ (* motzkin_2306_1 (+ (* 1.0 |liipp_2__ULTIMATE.start_main_#res|) 0.0)) (* motzkin_2306_2 (+ (* 1.0 |liipp_3__ULTIMATE.start_main_#res|) 0.0))) 0.0) (= (+ (* motzkin_2306_1 (+ (* 1.0 |liipp_2__ULTIMATE.start_main_#t~pre0|) 0.0)) (* motzkin_2306_2 (+ (* 1.0 |liipp_3__ULTIMATE.start_main_#t~pre0|) 0.0))) 0.0) (= (+ (* motzkin_2306_1 (+ (* 1.0 liipp_2__ULTIMATE.start_main_~x~1) 0.0)) (* motzkin_2306_2 (+ (* 1.0 liipp_3__ULTIMATE.start_main_~x~1) 0.0))) 0.0) (<= (+ (* motzkin_2306_0 (- 19.0)) (* motzkin_2306_1 (+ (* 1.0 liipp_2_c) 0.0)) (* motzkin_2306_2 (+ (* 1.0 liipp_3_c) 0.0))) 0.0) (or (< (+ (* motzkin_2306_0 (- 19.0)) (* motzkin_2306_2 (+ (* 1.0 liipp_3_c) 0.0))) 0.0) (> motzkin_2306_1 0.0)) (>= motzkin_2307_0 0.0) (>= motzkin_2307_1 0.0) (>= motzkin_2307_2 0.0) (= (+ (* motzkin_2307_0 (- 1.0)) (* motzkin_2307_1 (+ (* 1.0 liipp_2__ULTIMATE.start_main_~z~1) 0.0)) (* motzkin_2307_2 (+ (* 1.0 liipp_3__ULTIMATE.start_main_~z~1) 0.0))) 0.0) (= (+ (* motzkin_2307_1 (+ (* 1.0 liipp_2__ULTIMATE.start_main_~y~1) 0.0)) (* motzkin_2307_2 (+ (* 1.0 liipp_3__ULTIMATE.start_main_~y~1) 0.0))) 0.0) (= (+ (* motzkin_2307_1 (+ (* 1.0 |liipp_2__ULTIMATE.start_main_#t~pre1|) 0.0)) (* motzkin_2307_2 (+ (* 1.0 |liipp_3__ULTIMATE.start_main_#t~pre1|) 0.0))) 0.0) (= (+ (* motzkin_2307_1 (+ (* 1.0 |liipp_2__ULTIMATE.start_main_#res|) 0.0)) (* motzkin_2307_2 (+ (* 1.0 |liipp_3__ULTIMATE.start_main_#res|) 0.0))) 0.0) (= (+ (* motzkin_2307_1 (+ (* 1.0 |liipp_2__ULTIMATE.start_main_#t~pre0|) 0.0)) (* motzkin_2307_2 (+ (* 1.0 |liipp_3__ULTIMATE.start_main_#t~pre0|) 0.0))) 0.0) (= (+ (* motzkin_2307_1 (+ (* 1.0 liipp_2__ULTIMATE.start_main_~x~1) 0.0)) (* motzkin_2307_2 (+ (* 1.0 liipp_3__ULTIMATE.start_main_~x~1) 0.0))) 0.0) (<= (+ (* motzkin_2307_0 17.0) (* motzkin_2307_1 (+ (* 1.0 liipp_2_c) 0.0)) (* motzkin_2307_2 (+ (* 1.0 liipp_3_c) 0.0))) 0.0) (or (< (+ (* motzkin_2307_0 17.0) (* motzkin_2307_2 (+ (* 1.0 liipp_3_c) 0.0))) 0.0) (> motzkin_2307_1 0.0))))
(assert (= |liipp_3__ULTIMATE.start_main_#t~pre1| 0))
(assert (= liipp_3__ULTIMATE.start_main_~x~1 0))
(assert (= |liipp_3__ULTIMATE.start_main_#t~pre0| 0))
(assert (= |liipp_0__ULTIMATE.start_main_#res| 0))
(assert (= liipp_3__ULTIMATE.start_main_~y~1 0))
(assert (= |liipp_4__ULTIMATE.start_main_#res| 0))
(assert (= liipp_2__ULTIMATE.start_main_~x~1 0))
(assert (= liipp_2__ULTIMATE.start_main_~y~1 0))
(assert (= |liipp_4__ULTIMATE.start_main_#t~pre0| 0))
(assert (= |liipp_1__ULTIMATE.start_main_#res| 0))
(assert (= |liipp_4__ULTIMATE.start_main_#t~pre1| 0))
(assert (= |liipp_5__ULTIMATE.start_main_#res| 0))
(assert (= liipp_1__ULTIMATE.start_main_~z~1 0))
(assert (= |liipp_1__ULTIMATE.start_main_#t~pre0| 0))
(assert (= liipp_5__ULTIMATE.start_main_~z~1 0))
(assert (= |liipp_1__ULTIMATE.start_main_#t~pre1| 0))
(assert (= |liipp_5__ULTIMATE.start_main_#t~pre0| 0))
(assert (= |liipp_5__ULTIMATE.start_main_#t~pre1| 0))
(assert (= |liipp_2__ULTIMATE.start_main_#res| 0))
(assert (= |liipp_2__ULTIMATE.start_main_#t~pre1| 0))
(assert (= |liipp_2__ULTIMATE.start_main_#t~pre0| 0))
(assert (= liipp_0__ULTIMATE.start_main_~z~1 0))
(assert (= liipp_4__ULTIMATE.start_main_~z~1 0))
(assert (= |liipp_0__ULTIMATE.start_main_#t~pre0| 0))
(assert (= |liipp_0__ULTIMATE.start_main_#t~pre1| 0))
(assert (= |liipp_3__ULTIMATE.start_main_#res| 0))
(assert (or (= liipp_5__ULTIMATE.start_main_~x~1 0) (= liipp_3_c 0) (= liipp_0_c 0) (= liipp_1_c 0)))
(assert (or (= liipp_1__ULTIMATE.start_main_~y~1 0) (= liipp_0__ULTIMATE.start_main_~y~1 0) (= liipp_5__ULTIMATE.start_main_~y~1 0) (= liipp_2__ULTIMATE.start_main_~z~1 0)))
(assert (or (= liipp_0__ULTIMATE.start_main_~x~1 0) (= liipp_0_c 0) (= liipp_0__ULTIMATE.start_main_~y~1 0) (= liipp_5__ULTIMATE.start_main_~y~1 0)))
(assert (or (= liipp_3_c 0) (= liipp_0__ULTIMATE.start_main_~y~1 0) (= liipp_2__ULTIMATE.start_main_~z~1 0) (= liipp_0_c 0)))
(assert (or (= liipp_1__ULTIMATE.start_main_~x~1 0) (= liipp_5__ULTIMATE.start_main_~x~1 0) (= liipp_0__ULTIMATE.start_main_~x~1 0) (= liipp_5_c 0)))
(assert (or (= liipp_0__ULTIMATE.start_main_~y~1 0) (= liipp_2_c 0) (= liipp_5__ULTIMATE.start_main_~y~1 0) (= liipp_1_c 0)))
(assert (or (= liipp_3__ULTIMATE.start_main_~z~1 0) (= liipp_1_c 0) (= liipp_4_c 0) (= liipp_0__ULTIMATE.start_main_~x~1 0)))
(assert (or (= liipp_1__ULTIMATE.start_main_~x~1 0) (= liipp_2_c 0) (= liipp_0__ULTIMATE.start_main_~y~1 0) (= liipp_5__ULTIMATE.start_main_~x~1 0)))
(assert (or (= liipp_5__ULTIMATE.start_main_~x~1 0) (= liipp_2_c 0) (= liipp_0__ULTIMATE.start_main_~x~1 0) (= liipp_3__ULTIMATE.start_main_~z~1 0)))
(assert (or (= liipp_0__ULTIMATE.start_main_~x~1 0) (= liipp_2__ULTIMATE.start_main_~z~1 0) (= liipp_3_c 0) (= liipp_4_c 0)))
(check-sat)
(exit)
